% File represents an instance of a Composite Structure problem to be solved by a CP framework
% Created on 2025-03-26 10:41:35.031
T = 50;
n = 25;
m = 40;
edges = [(2, 1),
(7, 6),
(11, 12),
(16, 17),
(21, 22),
(3, 2),
(7, 8),
(13, 12),
(17, 18),
(22, 23),
(4, 3),
(9, 8),
(14, 13),
(18, 19),
(23, 24),
(5, 4),
(10, 9),
(15, 14),
(20, 19),
(25, 24),
(6, 1),
(11, 6),
(16, 11),
(21, 16),
(7, 2),
(7, 12),
(17, 12),
(22, 17),
(3, 8),
(13, 8),
(13, 18),
(23, 18),
(4, 9),
(14, 9),
(14, 19),
(24, 19),
(10, 5),
(10, 15),
(15, 20),
(25, 20)];
counts = [|14, 4, 14, 2,
|16, 4, 16, 2,
|16, 6, 16, 2,
|16, 8, 16, 4,
|16, 8, 16, 6,
|16, 4, 16, 4,
|16, 4, 16, 8,
|16, 4, 16, 2,
|16, 8, 16, 2,
|16, 10, 16, 6,
|16, 4, 16, 8,
|16, 2, 16, 4,
|16, 6, 16, 4,
|16, 8, 16, 4,
|16, 8, 16, 6,
|16, 6, 16, 10,
|16, 4, 16, 6,
|16, 4, 16, 4,
|16, 2, 16, 4,
|16, 2, 16, 6,
|16, 6, 16, 12,
|16, 4, 16, 12,
|16, 4, 16, 10,
|16, 2, 16, 6,
|18, 2, 18, 6|];
